12 24 6 10
20 2 14 6 5 12 1 12 11 11 20 17 7 18 4 5 3 5 6 2 18 15 12 4 
10.21 7.3 13.68 13.67 6.39 11.94 0.72 6.56 14.1 2.46 14.04 8.76 8.7 15.71 9.19 6.79 6.31 8.34 12.32 9.73 8.61 2.32 5.25 6.83 
3.62 11.84 2.47 7.59 13 13.93 8.26 15.24 13.19 13.16 4.21 0.63 13.27 7.17 5.13 1.2 6.5 9.15 13.64 1.67 15.58 7.78 6.76 0.42 
5.14 10.04 6.81 0.25 9.65 9.05 5.07 11.08 11.03 15.93 5.21 0.45 13.36 1.3 4.54 12.24 7.8 12.09 2.74 5.27 13.78 2.76 14.83 15.78 
11.06 7.88 5.14 10.74 14.1 10.69 12.2 12.36 12.62 14.19 5.54 0.25 10.8 0.24 2.95 5.95 7.86 6.19 0.34 5.22 14.75 8.6 4.81 3.7 
14.54 6.95 12.36 10 6.82 13.31 8.28 9.45 6.41 10.64 6.13 5.74 14.72 1.23 3.99 7.64 14.49 7.12 10.61 9.66 11.87 14.36 14.62 0.76 
8.96 14.08 6.02 12.79 2.03 15.54 10.48 13.2 10.97 7.16 5.39 10.25 10.46 2.97 10.89 1.26 9.32 12.26 0.7 12.22 0.78 7.43 4.13 7.31 
8 8 8 8 8 8 8 8 8 8 8 8 8 8 8 8 8 8 8 8 8 8 8 8 
10.57 9.98 6.83 8.92 3.05 8.48 4.37 3.98 2.76 10.55 0.65 10.21 4.84 1.72 13.06 9.29 2.56 8.56 8.81 15.98 8.21 7.31 10.78 15.43 
4.62 7.21 8.93 10.14 2.06 11.87 9.48 13.74 10.08 7.65 4.7 2.5 11.54 5.45 15.87 9.27 2.2 6.41 2.96 9.88 2.1 5.42 5.12 4.08 
0.72 7.48 7.99 5.82 9.17 1.29 3.26 0.36 13.31 12.83 10.72 0.01 10.3 2.29 5.02 3.47 8.97 12.29 11.8 9.81 14.31 9.58 1.98 0.75 
4.52 15.03 11.55 0.44 12.96 0.14 7.03 14.83 2.48 0.49 6.84 15.16 5.78 8.46 13.53 1.77 5.37 13.16 4.45 4.02 12.64 1.4 2.95 3.18 
7.56 10.74 11.2 15.65 5.09 9.88 5.9 7.54 12.8 13.67 8.37 7.03 8.48 5.69 14.81 7.12 9.77 9.04 7.03 13.9 7.4 5.28 13.86 1.22 
1 1 1 1 1 1 1 1 1 1 1 1 1 1 1 1 1 1 1 1 1 1 1 1 
1 1 1 1 1 1 1 1 1 1 1 1 1 1 1 1 1 1 1 1 1 1 1 1 
1 1 1 1 1 1 1 1 1 1 1 1 1 1 1 1 1 1 1 1 1 1 1 1 
1 1 1 1 1 1 1 1 1 1 1 1 1 1 1 1 1 1 1 1 1 1 1 1 
1 1 1 1 1 1 1 1 1 1 1 1 1 1 1 1 1 1 1 1 1 1 1 1 
1 1 1 1 1 1 1 1 1 1 1 1 1 1 1 1 1 1 1 1 1 1 1 1 
1 1 1 1 1 1 1 1 1 1 1 1 1 1 1 1 1 1 1 1 1 1 1 1 
1 1 1 1 1 1 1 1 1 1 1 1 1 1 1 1 1 1 1 1 1 1 1 1 
1 1 1 1 1 1 1 1 1 1 1 1 1 1 1 1 1 1 1 1 1 1 1 1 
1 1 1 1 1 1 1 1 1 1 1 1 1 1 1 1 1 1 1 1 1 1 1 1 
1 1 1 1 1 1 1 1 1 1 1 1 1 1 1 1 1 1 1 1 1 1 1 1 
1 1 1 1 1 1 1 1 1 1 1 1 1 1 1 1 1 1 1 1 1 1 1 1 
0.01 0.01 0.01 0.01 0.01 0.01 0.01 0.01 0.01 0.01 0.01 0.01 0.01 0.01 0.01 0.01 0.01 0.01 0.01 0.01 0.01 0.01 0.01 0.01 
0.02 0.02 0.02 0.02 0.02 0.02 0.02 0.02 0.02 0.02 0.02 0.02 0.02 0.02 0.02 0.02 0.02 0.02 0.02 0.02 0.02 0.02 0.02 0.02 
0.03 0.03 0.03 0.03 0.03 0.03 0.03 0.03 0.03 0.03 0.03 0.03 0.03 0.03 0.03 0.03 0.03 0.03 0.03 0.03 0.03 0.03 0.03 0.03 
0.04 0.04 0.04 0.04 0.04 0.04 0.04 0.04 0.04 0.04 0.04 0.04 0.04 0.04 0.04 0.04 0.04 0.04 0.04 0.04 0.04 0.04 0.04 0.04 
0.05 0.05 0.05 0.05 0.05 0.05 0.05 0.05 0.05 0.05 0.05 0.05 0.05 0.05 0.05 0.05 0.05 0.05 0.05 0.05 0.05 0.05 0.05 0.05 
0.06 0.06 0.06 0.06 0.06 0.06 0.06 0.06 0.06 0.06 0.06 0.06 0.06 0.06 0.06 0.06 0.06 0.06 0.06 0.06 0.06 0.06 0.06 0.06 
0.07 0.07 0.07 0.07 0.07 0.07 0.07 0.07 0.07 0.07 0.07 0.07 0.07 0.07 0.07 0.07 0.07 0.07 0.07 0.07 0.07 0.07 0.07 0.07 
0.2 0.2 0.2 0.2 0.2 0.2 0.2 0.2 0.2 0.2 0.2 0.2 0.2 0.2 0.2 0.2 0.2 0.2 0.2 0.2 0.2 0.2 0.2 0.2 
0.4 0.4 0.4 0.4 0.4 0.4 0.4 0.4 0.4 0.4 0.4 0.4 0.4 0.4 0.4 0.4 0.4 0.4 0.4 0.4 0.4 0.4 0.4 0.4 
0.6 0.6 0.6 0.6 0.6 0.6 0.6 0.6 0.6 0.6 0.6 0.6 0.6 0.6 0.6 0.6 0.6 0.6 0.6 0.6 0.6 0.6 0.6 0.6 
0.8 0.8 0.8 0.8 0.8 0.8 0.8 0.8 0.8 0.8 0.8 0.8 0.8 0.8 0.8 0.8 0.8 0.8 0.8 0.8 0.8 0.8 0.8 0.8 
1 1 1 1 1 1 1 1 1 1 1 1 1 1 1 1 1 1 1 1 1 1 1 1 
